proyfinal/src/viki/013/experimentInOfficeAgust.take6.output/7f15474f-7c7a-4819-bb9b-d2e381ab1cbe.als.dat
{'cnf.clauses': '118081',
 'cnf.totvars': '69608',
 'conflict literals': '92',
 'conflicts': '28',
 'decisions': '4704',
 'memused.mb': '16.22',
 'outcome': 'UNSAT',
 'propagations': '26021',
 'restarts': '1',
 'solver.msecs': 38,
 'task.msecs': 89}
