proyfinal/src/viki/013/experimentInOfficeAgust.take6.output/7f15474f-7c7a-4819-bb9b-d2e381ab1cbe.als.out
Reading from standard input... Use '--help' for help.
============================[ Problem Statistics ]=============================
|                                                                             |
|  Number of variables:         69608                                         |
|  Number of clauses:          118081                                         |
|  Parse time:                   0.03 s                                       |
|                                                                             |
============================[ Search Statistics ]==============================
| Conflicts |          ORIGINAL         |          LEARNT          | Progress |
|           |    Vars  Clauses Literals |    Limit  Clauses Lit/Cl |          |
===============================================================================
===============================================================================
restarts              : 1
conflicts             : 28             (731 /sec)
decisions             : 4704           (0.00 % random) (122737 /sec)
propagations          : 26021          (678939 /sec)
conflict literals     : 92             (0.00 % deleted)
Memory used           : 16.22 MB
CPU time              : 0.038326 s

UNSATISFIABLE
